gil250_1
0 163 224 82 157 225 38 102 15 59 162 243 3 190 112 73 198 191 19 185 72 21 138 99 70 232 142 231 202 155 108 244 154 115 145 100 186 81 4 34 95 156 239 192 184 218 149 86 247 88 212 187 45 98 117 92 178 110 60 158 20 109 227 97 132 201 245 24 40 17 175 66 168 103 113 42 10 131 214 57 114 148 9 153 150 220 36 170 2 125 0 217 206 65 183 58 189 121 248 89 167 13 230 26 101 193 64 249 62 237 146 135 16 37 196 48 174 143 128 179 161 77 91 46 216 63 180 182 28 160 164 140 246 25 141 104 215 69 0